s 求解结果: 1
t 794
v 1 -2 4 6 -8 9 -11 -12 -13 15 17 18 19 20 -21 -22 -23 27 -28 -29 -30 31 -32 -33 -34 -35 -36 39 40 -41 42 -44 -45 46 49 50 51 -55 57 -58 60 -62 63 -64 65 -66 67 68 69 70 72 73 75 76 79 80 -81 82 -83 86 91 92 95 -96 -100 104 108 -110 111 112 117 -118 -119 -122 124 125 127 -132 137 -138 141 -145 -147 149 -155 -160 163 169 175 176 -177 181 183 186 -187 189 193 